results_rootrelaxation/bin012_050_038.srr.sol
solution status: optimal solution found
objective value:                                    0
_var233_                            0.154864405262687 	(obj:0)
_var573_                            0.199983889734182 	(obj:0)
_var705_                            0.250203168352277 	(obj:0)
_var711_                           0.0883576479011904 	(obj:0)
_var719_                            0.237230824308602 	(obj:0)
_var720_                            0.668157164593216 	(obj:0)
_var725_                            0.465072943703571 	(obj:0)
_var727_                          0.00643873623914791 	(obj:0)
_var734_                            0.412981294191355 	(obj:0)
_var735_                            0.635005817595989 	(obj:0)
_var739_                            0.385427369551596 	(obj:0)
_var741_                             0.19112682359259 	(obj:0)
_var743_                            0.119477311375639 	(obj:0)
_var744_                            0.202056743936273 	(obj:0)
_var745_                            0.011665622482772 	(obj:0)
_var747_                           0.0434601270920986 	(obj:0)
_var748_                            0.140778662847935 	(obj:0)
_var754_                            0.476233777857333 	(obj:0)
_var759_                           0.0930135147229933 	(obj:0)
_var760_                             0.20170947820639 	(obj:0)
_var763_                           0.0791891166204229 	(obj:0)
_var765_                            0.108592141770341 	(obj:0)
_var766_                            0.382563322294818 	(obj:0)
_var769_                            0.171844625436319 	(obj:0)
_var770_                            0.322160565649333 	(obj:0)
_var772_                           0.0566150541483936 	(obj:0)
_var776_                            0.141202899847849 	(obj:0)
_var777_                           0.0856493332139972 	(obj:0)
_var778_                            0.336523762642082 	(obj:0)
_var780_                           0.0129150630985418 	(obj:0)
_var781_                            0.246841492884633 	(obj:0)
_var783_                           0.0799695694978966 	(obj:0)
_var784_                            0.242910588024702 	(obj:0)
_var786_                            0.198215340553118 	(obj:0)
_var788_                           0.0956627584355161 	(obj:0)
_var790_                            0.331842835406784 	(obj:0)
_var791_                            0.245950058175958 	(obj:0)
_var792_                            0.191923386735883 	(obj:0)
_var793_                           0.0217005280587139 	(obj:0)
_var794_                           0.0782386109370823 	(obj:0)
_var795_                             0.48031325516871 	(obj:0)
_var796_                            0.182024523404636 	(obj:0)
_var799_                           0.0247614785643955 	(obj:0)
_var800_                            0.238829320683791 	(obj:0)
_var804_                            0.148939407500225 	(obj:0)
_var805_                          0.00765416629374416 	(obj:0)
_var806_                            0.276776156806587 	(obj:0)
_var807_                            0.203057370446613 	(obj:0)
_var808_                           0.0369927503803825 	(obj:0)
_var809_                           0.0795453324979833 	(obj:0)
_var810_                           0.0267126107580787 	(obj:0)
_var813_                           0.0607571824935118 	(obj:0)
_var815_                             0.11769086189922 	(obj:0)
_var816_                              0.2372308243086 	(obj:0)
_var819_                           0.0946120110981841 	(obj:0)
_var820_                           0.0749485366508545 	(obj:0)
_var821_                           0.0657155643068101 	(obj:0)
_var825_                          0.00528237715922352 	(obj:0)
_var826_                           0.0533339300098445 	(obj:0)
_var829_                           0.0925892777230825 	(obj:0)
_var830_                          0.00202273337510001 	(obj:0)
_var834_                           0.0331513469972266 	(obj:0)
_var840_                           0.0147820639040542 	(obj:0)
_var843_                           0.0285205405889203 	(obj:0)
